NAME : br17Preorder.17.tour
COMMENT : Length = 17
COMMENT : Found by LKH [Keld Helsgaun] Sun Apr 19 19:25:38 2020
TYPE : TOUR
DIMENSION : 17
TOUR_SECTION
1
12
11
3
14
10
2
13
9
8
17
4
5
6
15
7
16
-1
EOF
